NAME : traveling-santa-2018-prime-paths.30534.tour
COMMENT : Length = 30534
COMMENT : Found by LKH [Keld Helsgaun] Sun Jun 12 20:00:16 2022
TYPE : TOUR
DIMENSION : 100
TOUR_SECTION
1
49
26
91
20
60
29
46
27
59
83
100
14
3
82
12
80
81
19
16
88
23
65
97
45
4
84
55
98
2
42
53
38
33
44
77
95
67
36
25
6
54
56
79
99
40
85
93
17
58
24
31
72
74
48
22
32
66
41
75
9
50
89
63
28
35
37
43
57
71
68
64
13
90
51
39
21
73
62
61
96
86
78
18
8
76
52
69
47
11
94
30
92
15
34
10
5
7
87
70
-1
EOF
